
Gurobi 10.0.0 (linux64) logging started Tue Dec 13 15:05:10 2022

Set parameter LogFile to value "../results/k02_n100_d005/k02_n100_d009_gka1d_BQO_log.txt"
Gurobi Optimizer version 10.0.0 build v10.0.0rc2 (linux64)

CPU model: Intel(R) Xeon(R) CPU E5-2630 v4 @ 2.20GHz, instruction set [SSE2|AVX|AVX2]
Thread count: 20 physical cores, 40 logical processors, using up to 10 threads

Optimize a model with 100 rows, 200 columns and 200 nonzeros
Model fingerprint: 0xedf7df30
Model has 988 quadratic objective terms
Variable types: 0 continuous, 200 integer (200 binary)
Coefficient statistics:
  Matrix range     [1e+00, 1e+00]
  Objective range  [0e+00, 0e+00]
  QObjective range [2e+00, 1e+02]
  Bounds range     [1e+00, 1e+00]
  RHS range        [1e+00, 1e+00]
Found heuristic solution: objective -0.0000000
Presolve removed 100 rows and 102 columns
Presolve time: 0.15s
Presolved: 482 rows, 580 columns, 1446 nonzeros
Found heuristic solution: objective 59.0000000
Variable types: 0 continuous, 580 integer (580 binary)

Root relaxation: objective 5.871500e+03, 89 iterations, 0.00 seconds (0.00 work units)

    Nodes    |    Current Node    |     Objective Bounds      |     Work
 Expl Unexpl |  Obj  Depth IntInf | Incumbent    BestBd   Gap | It/Node Time

     0     0 5871.50000    0   98   59.00000 5871.50000  9852%     -    0s
H    0     0                    1512.0000000 5871.50000   288%     -    0s
     0     0 4715.25000    0  173 1512.00000 4715.25000   212%     -    0s
H    0     0                    1560.0000000 4715.25000   202%     -    0s
H    0     0                    1984.0000000 4679.00000   136%     -    0s
     0     0 4306.75000    0  212 1984.00000 4306.75000   117%     -    0s
     0     0 4306.75000    0  210 1984.00000 4306.75000   117%     -    0s
     0     2 4306.75000    0  208 1984.00000 4306.75000   117%     -    0s
H  154   176                    2017.0000000 3914.75000  94.1%  60.9    0s
H  213   240                    2075.0000000 3914.75000  88.7%  59.0    0s
H  228   240                    2181.0000000 3914.75000  79.5%  59.4    0s
H  236   240                    2291.0000000 3914.75000  70.9%  58.1    0s
H  302   312                    2362.0000000 3914.75000  65.7%  55.2    0s
H  407   426                    2400.0000000 3914.75000  63.1%  54.3    0s
H  425   426                    2415.0000000 3914.75000  62.1%  53.4    0s
H  558   552                    2453.0000000 3837.50000  56.4%  54.0    0s
H  573   552                    2480.0000000 3837.50000  54.7%  53.7    0s
H  725   636                    2523.0000000 3823.30769  51.5%  52.1    0s
H  876   686                    2537.0000000 3823.30769  50.7%  51.1    0s
H  962   749                    2567.0000000 3823.30769  48.9%  50.7    0s
H  964   744                    2584.0000000 3823.30769  48.0%  50.7    0s
* 1048   745              25    2676.0000000 3823.30769  42.9%  50.6    0s

Cutting planes:
  Gomory: 30
  MIR: 31
  Flow cover: 5
  Zero half: 266
  RLT: 48
  BQP: 2

Explored 1719 nodes (91041 simplex iterations) in 3.04 seconds (2.28 work units)
Thread count was 10 (of 40 available processors)

Solution count 10: 2676 2584 2567 ... 2362

Time limit reached
Best objective 2.676000000000e+03, best bound 3.213000000000e+03, gap 20.0673%
